NAME : data_12_9_tsptw.tsptw.9756.tour
COMMENT : Length = 9756
COMMENT : Found by LKH [Keld Helsgaun] Tue Feb  4 15:00:09 2020
TYPE : TOUR
DIMENSION : 13
TOUR_SECTION
1
13
6
2
4
5
10
12
7
8
11
3
9
-1
EOF
